id: 1031
name: buildingenergy
group: miplib2010
method: 1

Gurobi 7.0.2 (linux64, Matlab) logging started Thu Apr 19 16:01:02 2018


Gurobi 7.0.2 (linux64) logging started Thu Apr 19 16:01:02 2018

Optimize a model with 277594 rows, 154978 columns and 788969 nonzeros
Coefficient statistics:
  Matrix range     [5e-02, 6e+01]
  Objective range  [3e-02, 7e+03]
  Bounds range     [2e+00, 2e+00]
  RHS range        [1e+00, 2e+02]
Presolve removed 66579 rows and 40299 columns
Presolve time: 0.27s
Presolved: 211015 rows, 114679 columns, 753916 nonzeros

Iteration    Objective       Primal Inf.    Dual Inf.      Time
       0   -1.7757000e+33   7.345687e+34   1.775700e+03      0s
   94234    3.2983597e+04   1.426956e+05   0.000000e+00      5s
  138112    3.3246215e+04   0.000000e+00   0.000000e+00      8s

Solved in 138112 iterations and 8.19 seconds
Optimal objective  3.324621506e+04
status: OPTIMAL
